NAME : cvrp-A-U-8-2.753.tour
COMMENT : Length = 753
COMMENT : Found by LKH [Keld Helsgaun] Thu May 17 22:42:39 2018
TYPE : TOUR
DIMENSION : 31
TOUR_SECTION
1
31
29
9
15
14
4
3
5
8
17
20
27
12
7
16
2
11
6
10
13
28
19
24
22
30
21
18
25
23
26
-1
EOF
